n_res = 4;
rc = [ 0, 0, 0, 0 ];
n_tasks = 30;
d = [ 10, 2, 10, 9, 9, 9, 9, 4, 6, 1, 1, 10, 5, 5, 1, 4, 1, 6, 10, 2, 5, 8, 10, 10, 5, 3, 4, 8, 4, 8 ];
rr = [| 0, 0, 0, 0, 0, 0, 0, 0, 0, 0, 0, 0, 0, 0, 0, 0, 0, 0, 0, 0, 0, 0, 0, 0, 0, 0, 0, 0, 0, 0
      | 0, 0, 0, 0, 0, 0, 0, 0, 0, 0, 0, 0, 0, 0, 0, 0, 0, 0, 0, 0, 0, 0, 0, 0, 0, 0, 0, 0, 0, 0
      | 0, 0, 0, 0, 0, 0, 0, 0, 0, 0, 0, 0, 0, 0, 0, 0, 0, 0, 0, 0, 0, 0, 0, 0, 0, 0, 0, 0, 0, 0
      | 0, 0, 0, 0, 0, 0, 0, 0, 0, 0, 0, 0, 0, 0, 0, 0, 0, 0, 0, 0, 0, 0, 0, 0, 0, 0, 0, 0, 0, 0 |];
suc = [ { 11, 17, 21 },
       { 4, 7, 8 },
       { 5, 10, 18 },
       { 6, 13, 22 },
       { 9, 11, 17 },
       { 9, 12, 14 },
       { 15, 19, 22 },
       { 12, 13, 24 },
       { 15, 16, 28 },
       { 16, 22, 27 },
       { 20, 24 },
       { 16, 18, 19 },
       { 15, 20 },
       { 17, 18, 21 },
       { 23, 25 },
       { 25 },
       { 24, 26 },
       { 26, 27, 29 },
       { 20, 21 },
       { 30 },
       { 23 },
       { 23, 25, 28 },
       { 29 },
       { 27, 28, 29 },
       { 26 },
       { 30 },
       { 30 },
       {  },
       {  },
       {  } ];
